Results/Experiment 1 Results/Existing Benchmark/RES_20/i-20-100-8.txt
solutions: 2 nodes: 3  modelTime: 143  solveTime: 12  totalTime: 158  modelSize: 7358  readTime: 3 matchingSize: 10
