Results/Experiment 2 Results/Existing Benchmark/i-20-100-8.lp
clingo version 5.4.0
Reading from tempSRTISolver.lp ...
Solving...
Answer: 1
matched(3,2) matched(2,3) matched(20,4) matched(10,5) matched(16,6) matched(15,7) matched(19,8) matched(1,9) matched(5,10) matched(12,11) matched(11,12) matched(18,13) matched(17,14) matched(7,15) matched(6,16) matched(14,17) matched(13,18) matched(8,19) matched(4,20) matched(9,1)
Optimization: 77
OPTIMUM FOUND

Models       : 1
  Optimum    : yes
Optimization : 77
Calls        : 1
Time         : 0.102s (Solving: 0.00s 1st Model: 0.00s Unsat: 0.00s)
CPU Time     : 0.080s
